5	10
6 111	8 74	1 129	4 91	0 155	3 2	7 37	9 74	2 146	5 65
2 186	7 142	1 51	9 149	3 76	8 10	0 124	5 32	4 138	6 28
4 154	7 47	8 146	2 38	1 122	6 183	5 61	0 137	3 91	9 112
2 136	1 192	0 139	9 61	7 85	5 165	3 74	8 80	4 131	6 84
3 58	4 139	5 108	7 112	6 178	2 4	0 72	8 139	9 100	1 179
